benchmarks_vrp/CMT12/fixed_c/CMT12_2.vrp
NAME: CMT12_2
TYPE: CVRP
COMMENT: 819.56 - Cluster Nr.2
DIMENSION: 5
CAPACITY: 200
EDGE_WEIGHT_TYPE: EUC_2D
NODE_COORD_TYPE: TWOD_COORDS
NODE_COORD_SECTION: 
5 87 30
3 40 50
1 85 25
2 85 35
4 88 30
DEPOT_SECTION: 
3
-1
DEMAND_SECTION: 
4 10
2 30
1 10
5 10
3 0
EOF
