benchmarks_vrp/CMT12/fixed_c/CMT12_2.tour
NAME: CMT12_2 solution
TYPE: TOUR
TOUR_SECTION:
3 1 4 5 2 -1
-1
EOF